DIMENSION: 6
EDGE_WEIGHT_TYPE: EXPLICIT
EDGE_WEIGHT_FORMAT: FULL_MATRIX
EDGE_WEIGHT_SECTION:
32767 75 32767 32767 32767 32767 
75 32767 32767 32767 32767 32767 
32767 32767 32767 57 32767 32767 
32767 32767 57 32767 32767 32767 
32767 32767 32767 32767 32767 8 
32767 32767 32767 32767 8 32767 
EOF